% From JaCoP's nonogramRepository/data028.nin
 rows = 20;
 row_rule_len = 7;
 row_rules = array2d(1..rows, 1..row_rule_len, 
[
 0,0,0,0,0,0,7,
 0,0,0,0,1,1,1,
 0,0,0,0,3,5,3,
 0,0,0,0,0,5,5,
 0,0,0,0,0,4,4,
 0,0,0,0,1,2,2,
 0,0,0,0,0,3,2,
 0,0,1,1,1,1,1,
 1,1,1,1,1,1,1,
 0,0,1,1,3,3,1,
 0,0,2,2,2,2,1,
 0,0,0,0,2,2,1,
 0,0,0,2,3,3,2,
 0,0,0,2,5,1,4,
 0,0,0,0,2,5,5,
 0,0,0,0,0,3,15,
 0,0,0,0,4,7,5,
 0,0,0,0,0,13,5,
 0,0,0,0,0,3,13,
 0,0,0,0,0,5,3
]);

 cols = 20;
 col_rule_len = 6;
 col_rules = array2d(1..cols, 1..col_rule_len, 
[
 0,0,0,0,0,7,
 0,0,0,0,0,9,
 0,0,0,0,2,4,
 0,0,0,0,2,3,
 0,0,0,2,4,1,
 0,0,0,0,2,12,
 0,0,0,0,5,7,
 0,0,0,0,5,6,
 0,0,0,3,2,7,
 0,0,1,1,3,6,
 0,1,1,1,1,5,
 0,1,1,1,1,5,
 0,1,1,2,1,3,
 1,1,1,1,1,1,
 1,1,1,1,1,1,
 0,0,1,1,3,6,
 0,0,1,3,2,7,
 0,0,0,0,5,7,
 0,0,0,0,5,7,
 0,0,0,0,2,12
]);

